NAME: instance_2778
TYPE: TSP
DIMENSION: 20
EDGE_WEIGHT_TYPE: EUC_2D
NODE_COORD_SECTION
0 85.05 67.36
1 33.60 91.38
2 0.37 17.81
3 15.08 76.85
4 13.59 16.94
5 11.26 72.71
6 69.30 6.25
7 77.12 0.71
8 98.53 43.78
9 40.92 34.79
10 53.70 57.76
11 44.79 90.31
12 53.35 8.34
13 49.79 89.62
14 48.43 89.91
15 69.15 21.37
16 19.29 10.94
17 33.81 30.46
18 54.67 12.41
19 34.10 54.32
EOF
